135	32	4	103	
10	11	11	15

0	0	0	0	0	0	2	1	2
1	0	1	0	9	9	1	3
2	9	0	0	10	2	1	4
3	0	10	0	0	6	2	6	7
4	0	0	9	0	1	1	5
5	0	0	2	0	7	2	6	18
6	1	0	7	2	7	2	14	20
7	8	0	5	0	8	2	8	29
8	3	6	0	0	8	1	9
9	6	0	0	0	2	1	10
10	4	6	0	0	5	1	11
11	7	0	3	5	1	1	12
12	5	0	0	0	8	1	13
13	0	2	0	0	2	1	15
14	7	0	0	0	4	1	17
15	10	0	9	4	1	1	16
16	0	7	3	4	3	1	18
17	4	6	8	6	7	1	29
18	0	3	0	0	2	1	19
19	0	1	0	0	10	1	20
20	0	0	0	2	6	1	21
21	0	9	0	9	4	1	22
22	0	2	0	0	3	1	23
23	2	0	9	0	2	1	24
24	4	2	3	3	4	1	25
25	9	0	0	8	3	1	26
26	10	7	0	1	5	1	27
27	6	6	1	1	8	1	28
28	4	0	0	0	2	1	30
29	4	0	6	0	4	1	31
30	1	9	0	10	1	1	31
31	0	0	0	0	0	0
